proyfinal/src/viki/013/experimentInOfficeAgust.take6.output/24f76067-2453-45cb-a2e6-824152a6f322.als.out
Reading from standard input... Use '--help' for help.
============================[ Problem Statistics ]=============================
|                                                                             |
|  Number of variables:         87638                                         |
|  Number of clauses:          161767                                         |
|  Parse time:                   0.04 s                                       |
|                                                                             |
============================[ Search Statistics ]==============================
| Conflicts |          ORIGINAL         |          LEARNT          | Progress |
|           |    Vars  Clauses Literals |    Limit  Clauses Lit/Cl |          |
===============================================================================
|       100 |   62646   106089   265267 |    38899      100      7 | 28.517 % |
|       250 |   62596   105928   264838 |    42789      171     43 | 28.574 % |
|       475 |   62578   105858   264666 |    47068      395    110 | 28.595 % |
|       812 |   62578   105858   264666 |    51774      732    106 | 28.595 % |
|      1318 |   62578   105858   264666 |    56952     1238    110 | 28.595 % |
|      2077 |   62578   105858   264666 |    62647     1997     97 | 28.595 % |
===============================================================================
restarts              : 15
conflicts             : 2838           (6223 /sec)
decisions             : 13712          (0.00 % random) (30065 /sec)
propagations          : 5023239        (11014112 /sec)
conflict literals     : 298886         (47.65 % deleted)
Memory used           : 24.37 MB
CPU time              : 0.456073 s

UNSATISFIABLE
